c Sudoku solution
p cnf 729 0
183 0
227 0
236 0
244 0
323 0
352 0
369 0
377 0
531 0
549 0
556 0
584 0
618 0
633 0
651 0
667 0
624 0
715 0
737 0
761 0
793 0
816 0
913 0
426 0
828 0
921 0
834 0
895 0
948 0
992 0
939 0
722 0
746 0
525 0
129 0
419 0
517 0
432 0
166 0
598 0
497 0
443 0
562 0
645 0
573 0
842 0
863 0
341 0
147 0
314 0
396 0
253 0
194 0
111 0
212 0
172 0
682 0
986 0
974 0
887 0
871 0
754 0
965 0
957 0
859 0
458 0
464 0
155 0
268 0
138 0
335 0
388 0
291 0
475 0
481 0
279 0
285 0
676 0
699 0
778 0
789 0
